decision_x1=[0,4];
decision_x2=[0,4];
decision_x3=[0,4];
decision_x4=[0,4];
decision_x5=[0,4];
decision_x6=[0,4];
decision_x7=[0,4];
decision_x8=[0,4];
decision_x9=[0,4];
decision_x10=[0,4];
decision_x11=[0,4];
decision_x12=[0,4];
decision_x13=[0,4];
decision_x14=[0,4];
decision_x15=[0,4];
random_y1=[0,4];
random_y2=[0,4];
random_y3=[0,4];
constraint_x4_x1=[
0,1,1.8|
0,2,4.7|
0,3,8|
0,4,1.3|
1,0,2.1|
1,2,9.1|
1,3,5.5|
1,4,5.7|
2,0,0.59|
2,1,0.67|
2,3,6.7|
2,4,4.8|
3,0,4.9|
3,1,4.1|
3,2,1.9|
3,4,5.4|
4,0,5.9|
4,1,6.4|
4,2,8.6|
4,3,1.5|
];
constraint_x5_x1=[
0,1,0.94|
0,2,5.4|
0,3,1.2|
0,4,6.3|
1,0,5.3|
1,2,4.8|
1,3,2|
1,4,7.2|
2,0,8.4|
2,1,5.9|
2,3,9.7|
2,4,0.92|
3,0,0.92|
3,1,8.9|
3,2,3.9|
3,4,9.7|
4,0,8|
4,1,7.9|
4,2,2.3|
4,3,8.7|
];
constraint_x5_x3=[
0,1,6.3|
0,2,5.9|
0,3,4|
0,4,7|
1,0,4.9|
1,2,9.7|
1,3,8.5|
1,4,6|
2,0,2.9|
2,1,3.1|
2,3,7.2|
2,4,0.37|
3,0,1.1|
3,1,0.88|
3,2,8.4|
3,4,3.3|
4,0,0.41|
4,1,3.1|
4,2,5.4|
4,3,6.1|
];
constraint_x6_x2=[
0,1,7.4|
0,2,0.88|
0,3,9.3|
0,4,3|
1,0,8.1|
1,2,0.65|
1,3,5.3|
1,4,8.6|
2,0,2.4|
2,1,6.4|
2,3,4.2|
2,4,7.7|
3,0,9.3|
3,1,5.4|
3,2,7.4|
3,4,5.4|
4,0,4.4|
4,1,1.3|
4,2,8.4|
4,3,0.15|
];
constraint_x6_x4=[
0,1,2.8|
0,2,2.2|
0,3,7.2|
0,4,0.35|
1,0,3.6|
1,2,1.4|
1,3,5.2|
1,4,0.94|
2,0,5.8|
2,1,5.1|
2,3,6.6|
2,4,4.2|
3,0,3.8|
3,1,0.5|
3,2,4.5|
3,4,7|
4,0,0.12|
4,1,1.6|
4,2,0.92|
4,3,0.84|
];
constraint_x7_x1=[
0,1,9.8|
0,2,4.8|
0,3,0.7|
0,4,1.4|
1,0,8|
1,2,9.9|
1,3,4.5|
1,4,2.4|
2,0,0.018|
2,1,8|
2,3,4.5|
2,4,0.96|
3,0,7.6|
3,1,2|
3,2,4.9|
3,4,9.3|
4,0,2.9|
4,1,2.9|
4,2,1.8|
4,3,3.3|
];
constraint_x7_x2=[
0,1,6.1|
0,2,9.1|
0,3,1|
0,4,6.1|
1,0,4.9|
1,2,4.5|
1,3,1.7|
1,4,4.2|
2,0,0.5|
2,1,4|
2,3,9.1|
2,4,1.6|
3,0,9|
3,1,3.3|
3,2,5.8|
3,4,3.5|
4,0,9.9|
4,1,8.8|
4,2,7|
4,3,3.8|
];
constraint_x7_x3=[
0,1,2.3|
0,2,5.7|
0,3,3.3|
0,4,0.76|
1,0,1.9|
1,2,5.8|
1,3,3.6|
1,4,1.4|
2,0,5.3|
2,1,7.8|
2,3,3.4|
2,4,9.9|
3,0,5.3|
3,1,0.59|
3,2,10|
3,4,1.9|
4,0,8.1|
4,1,7.5|
4,2,3|
4,3,2.6|
];
constraint_x7_x5=[
0,1,3.3|
0,2,1.8|
0,3,6.3|
0,4,6|
1,0,3.1|
1,2,0.94|
1,3,6.8|
1,4,9.4|
2,0,9|
2,1,9.8|
2,3,0.054|
2,4,5.5|
3,0,4.5|
3,1,2.7|
3,2,7|
3,4,10|
4,0,3.7|
4,1,0.41|
4,2,3.1|
4,3,6.7|
];
constraint_x7_x6=[
0,1,2.5|
0,2,4.3|
0,3,7|
0,4,5|
1,0,8.7|
1,2,3.1|
1,3,5.8|
1,4,1.9|
2,0,8.9|
2,1,4.8|
2,3,2.7|
2,4,1.7|
3,0,1.6|
3,1,4.7|
3,2,8.7|
3,4,6.3|
4,0,6.8|
4,1,3.4|
4,2,0.5|
4,3,0.097|
];
constraint_x8_x1=[
0,1,2.3|
0,2,7.3|
0,3,1.7|
0,4,9|
1,0,0.07|
1,2,3.3|
1,3,4.1|
1,4,5.8|
2,0,0.78|
2,1,8.5|
2,3,7.6|
2,4,6.6|
3,0,9.2|
3,1,0.4|
3,2,9.4|
3,4,5.6|
4,0,7.2|
4,1,6.4|
4,2,5|
4,3,3.6|
];
constraint_x8_x3=[
0,1,0.29|
0,2,8.5|
0,3,8|
0,4,4.8|
1,0,9.7|
1,2,3.5|
1,3,1.8|
1,4,6.8|
2,0,7.3|
2,1,0.76|
2,3,3.2|
2,4,2|
3,0,9.1|
3,1,9.1|
3,2,6.8|
3,4,6.7|
4,0,4.2|
4,1,3.9|
4,2,2.3|
4,3,4.2|
];
constraint_x8_x6=[
0,1,6.5|
0,2,1.7|
0,3,0.38|
0,4,5.6|
1,0,4.8|
1,2,9.2|
1,3,6.9|
1,4,2.3|
2,0,0.55|
2,1,2.4|
2,3,0.14|
2,4,6.9|
3,0,5.8|
3,1,8.6|
3,2,8.3|
3,4,3.3|
4,0,7.1|
4,1,0.088|
4,2,7.7|
4,3,6.8|
];
constraint_x8_x7=[
0,1,8.7|
0,2,6.5|
0,3,2.1|
0,4,2|
1,0,4.7|
1,2,2.4|
1,3,5.3|
1,4,4.5|
2,0,7.7|
2,1,2.1|
2,3,6.2|
2,4,5|
3,0,2.4|
3,1,8.9|
3,2,4.5|
3,4,6|
4,0,5.8|
4,1,1.6|
4,2,2|
4,3,6.1|
];
constraint_x9_x3=[
0,1,0.41|
0,2,5.1|
0,3,7.7|
0,4,3.2|
1,0,5.4|
1,2,9|
1,3,0.37|
1,4,5.1|
2,0,4.5|
2,1,2.7|
2,3,0.88|
2,4,2.7|
3,0,3.5|
3,1,0.27|
3,2,3.9|
3,4,3.9|
4,0,5.6|
4,1,7|
4,2,8.9|
4,3,0.87|
];
constraint_x9_x4=[
0,1,7.7|
0,2,7.1|
0,3,3.2|
0,4,7.4|
1,0,9.6|
1,2,2.6|
1,3,3.5|
1,4,5.7|
2,0,4.8|
2,1,3.3|
2,3,7.9|
2,4,9.6|
3,0,5.1|
3,1,1.6|
3,2,9.5|
3,4,5.4|
4,0,6.5|
4,1,6.1|
4,2,7.7|
4,3,6.2|
];
constraint_x9_x5=[
0,1,4.1|
0,2,4.4|
0,3,8.2|
0,4,5.7|
1,0,2.2|
1,2,3|
1,3,5|
1,4,3.2|
2,0,0.97|
2,1,5.1|
2,3,8.4|
2,4,3.1|
3,0,3.4|
3,1,3.8|
3,2,1.7|
3,4,1.6|
4,0,1.5|
4,1,2.5|
4,2,8.6|
4,3,9.3|
];
constraint_x9_x7=[
0,1,0.89|
0,2,4.1|
0,3,8.4|
0,4,0.99|
1,0,2|
1,2,4.5|
1,3,2.8|
1,4,2.6|
2,0,9.2|
2,1,9.8|
2,3,8|
2,4,0.35|
3,0,6.1|
3,1,6.6|
3,2,4.7|
3,4,1.3|
4,0,1.3|
4,1,2.1|
4,2,3.1|
4,3,8.8|
];
constraint_x9_x8=[
0,1,5.8|
0,2,2.1|
0,3,3|
0,4,9.8|
1,0,4.3|
1,2,7.1|
1,3,6.7|
1,4,3.6|
2,0,3|
2,1,2|
2,3,3.5|
2,4,0.55|
3,0,6.4|
3,1,5.6|
3,2,2.5|
3,4,9.7|
4,0,7.1|
4,1,8|
4,2,7.4|
4,3,7.4|
];
constraint_x10_x2=[
0,1,3.1|
0,2,5.6|
0,3,4.1|
0,4,7.4|
1,0,3.1|
1,2,4.5|
1,3,9|
1,4,3.8|
2,0,8.7|
2,1,8.3|
2,3,3.3|
2,4,7.9|
3,0,3.4|
3,1,9.7|
3,2,3.7|
3,4,4.4|
4,0,7.8|
4,1,8.8|
4,2,8.9|
4,3,1.5|
];
constraint_x10_x3=[
0,1,9.3|
0,2,7.6|
0,3,7.4|
0,4,3.9|
1,0,4.2|
1,2,8.6|
1,3,5.4|
1,4,3.5|
2,0,4.1|
2,1,7.8|
2,3,8.5|
2,4,1.2|
3,0,0.1|
3,1,8.3|
3,2,1.7|
3,4,7.3|
4,0,4.7|
4,1,1.1|
4,2,7.5|
4,3,5.3|
];
constraint_x10_x6=[
0,1,7.3|
0,2,0.91|
0,3,5.6|
0,4,9.7|
1,0,2.3|
1,2,2.5|
1,3,8.9|
1,4,7.5|
2,0,2.6|
2,1,7.7|
2,3,4.4|
2,4,3.1|
3,0,7.8|
3,1,6.7|
3,2,0.62|
3,4,7.7|
4,0,9.3|
4,1,0.64|
4,2,6.5|
4,3,2.9|
];
constraint_x10_x8=[
0,1,2|
0,2,9.9|
0,3,7|
0,4,7.8|
1,0,3|
1,2,0.61|
1,3,2|
1,4,2.9|
2,0,4|
2,1,9.2|
2,3,9.1|
2,4,3.7|
3,0,7|
3,1,4.7|
3,2,7.7|
3,4,5.8|
4,0,2.8|
4,1,2|
4,2,1.3|
4,3,2.8|
];
constraint_x11_x1=[
0,1,4.1|
0,2,7.7|
0,3,2.3|
0,4,1.8|
1,0,3.5|
1,2,4.5|
1,3,0.4|
1,4,2.4|
2,0,6.8|
2,1,8.5|
2,3,7.8|
2,4,6.2|
3,0,5.4|
3,1,4.9|
3,2,2.3|
3,4,4.6|
4,0,5.2|
4,1,3.1|
4,2,5.8|
4,3,9.7|
];
constraint_x11_x4=[
0,1,7.4|
0,2,8.2|
0,3,0.0046|
0,4,0.029|
1,0,4.7|
1,2,6.4|
1,3,8.5|
1,4,1.9|
2,0,6.3|
2,1,8.4|
2,3,4.7|
2,4,3.4|
3,0,6.2|
3,1,2.5|
3,2,6|
3,4,3|
4,0,6|
4,1,4.8|
4,2,2.4|
4,3,6.5|
];
constraint_x11_x5=[
0,1,7.7|
0,2,4.2|
0,3,6.9|
0,4,0.79|
1,0,3.4|
1,2,8.3|
1,3,8.9|
1,4,9.1|
2,0,3.3|
2,1,4.9|
2,3,9.9|
2,4,7.2|
3,0,1.6|
3,1,4.7|
3,2,8.1|
3,4,2.7|
4,0,3.8|
4,1,1.3|
4,2,2.7|
4,3,8.4|
];
constraint_x11_x6=[
0,1,6|
0,2,0.59|
0,3,2.5|
0,4,9.8|
1,0,3.8|
1,2,8.6|
1,3,3.4|
1,4,0.47|
2,0,2|
2,1,6.2|
2,3,3.9|
2,4,2.8|
3,0,5.3|
3,1,5.9|
3,2,6.7|
3,4,1.2|
4,0,9.7|
4,1,4.3|
4,2,3.1|
4,3,3.7|
];
constraint_x11_x7=[
0,1,7.9|
0,2,4.4|
0,3,1.9|
0,4,0.25|
1,0,0.14|
1,2,5.5|
1,3,2.4|
1,4,3.2|
2,0,6.6|
2,1,7.5|
2,3,0.082|
2,4,6.4|
3,0,3.8|
3,1,1.8|
3,2,8.1|
3,4,0.79|
4,0,8.2|
4,1,10|
4,2,6.4|
4,3,1.1|
];
constraint_x11_x8=[
0,1,3.3|
0,2,9|
0,3,9.7|
0,4,5.3|
1,0,6.2|
1,2,9.2|
1,3,1.9|
1,4,10|
2,0,4.6|
2,1,2.3|
2,3,7.5|
2,4,7.8|
3,0,7|
3,1,6.1|
3,2,1.4|
3,4,6.7|
4,0,8|
4,1,4.6|
4,2,3.5|
4,3,3.7|
];
constraint_x11_x9=[
0,1,2.2|
0,2,1.8|
0,3,6.4|
0,4,2.1|
1,0,6.4|
1,2,0.96|
1,3,4.2|
1,4,7.5|
2,0,9.8|
2,1,9.4|
2,3,0.29|
2,4,8.7|
3,0,3.3|
3,1,8.8|
3,2,6.6|
3,4,8.4|
4,0,6.6|
4,1,3.3|
4,2,1.6|
4,3,5.9|
];
constraint_x12_x3=[
0,1,8.6|
0,2,0.4|
0,3,9.8|
0,4,9.5|
1,0,1.4|
1,2,0.46|
1,3,0.067|
1,4,6.6|
2,0,6.1|
2,1,0.29|
2,3,3.1|
2,4,7.8|
3,0,9|
3,1,6.4|
3,2,8.7|
3,4,3.8|
4,0,7.3|
4,1,6.3|
4,2,6.2|
4,3,6.6|
];
constraint_x12_x4=[
0,1,8.2|
0,2,2|
0,3,1.8|
0,4,1.7|
1,0,6.8|
1,2,9.7|
1,3,9.3|
1,4,5.2|
2,0,6.9|
2,1,4.5|
2,3,7.8|
2,4,7.6|
3,0,9.9|
3,1,1.3|
3,2,8.1|
3,4,1.1|
4,0,3.6|
4,1,6.5|
4,2,4.7|
4,3,5.2|
];
constraint_x12_x5=[
0,1,3|
0,2,1.8|
0,3,4.2|
0,4,9.5|
1,0,7.6|
1,2,3.3|
1,3,6.2|
1,4,4.5|
2,0,1.8|
2,1,9.6|
2,3,7.8|
2,4,4.1|
3,0,9.8|
3,1,1.9|
3,2,7|
3,4,2.2|
4,0,8.1|
4,1,4|
4,2,1.8|
4,3,0.33|
];
constraint_x12_x7=[
0,1,6.6|
0,2,4.5|
0,3,5|
0,4,7|
1,0,1.5|
1,2,3.2|
1,3,5.1|
1,4,0.49|
2,0,0.48|
2,1,2.2|
2,3,7.7|
2,4,9.2|
3,0,9.6|
3,1,1.2|
3,2,1.7|
3,4,1.2|
4,0,7.7|
4,1,3.5|
4,2,9.8|
4,3,1.4|
];
constraint_x12_x11=[
0,1,7.1|
0,2,5.1|
0,3,4.6|
0,4,9.1|
1,0,8.6|
1,2,7.8|
1,3,6|
1,4,9.6|
2,0,1.2|
2,1,4.5|
2,3,8.4|
2,4,0.57|
3,0,1.6|
3,1,5.7|
3,2,8.5|
3,4,2.5|
4,0,6.1|
4,1,3.5|
4,2,0.23|
4,3,1.8|
];
constraint_x13_x1=[
0,1,1.4|
0,2,0.18|
0,3,4.3|
0,4,9.4|
1,0,3.8|
1,2,1|
1,3,1.8|
1,4,6.7|
2,0,8.3|
2,1,8.6|
2,3,7.9|
2,4,0.17|
3,0,3.3|
3,1,9.6|
3,2,0.24|
3,4,9.3|
4,0,6.1|
4,1,6.9|
4,2,4.1|
4,3,9.7|
];
constraint_x13_x3=[
0,1,5.1|
0,2,5.1|
0,3,7.1|
0,4,6.3|
1,0,0.57|
1,2,0.87|
1,3,6.5|
1,4,6.6|
2,0,6.2|
2,1,1.4|
2,3,0.44|
2,4,5.5|
3,0,2.7|
3,1,4.7|
3,2,2.3|
3,4,9.4|
4,0,0.18|
4,1,7.4|
4,2,7.4|
4,3,4.8|
];
constraint_x13_x4=[
0,1,9.6|
0,2,8.1|
0,3,3.9|
0,4,5.1|
1,0,1.4|
1,2,6.1|
1,3,9.1|
1,4,2.8|
2,0,6.4|
2,1,7.7|
2,3,7.2|
2,4,0.99|
3,0,1.1|
3,1,8.6|
3,2,4.1|
3,4,8.2|
4,0,6.3|
4,1,5.5|
4,2,0.39|
4,3,7.7|
];
constraint_x13_x5=[
0,1,3.4|
0,2,2.9|
0,3,4.5|
0,4,0.49|
1,0,7.1|
1,2,8|
1,3,5.7|
1,4,2.3|
2,0,0.5|
2,1,2.4|
2,3,7.8|
2,4,2.1|
3,0,7.2|
3,1,1.5|
3,2,4.9|
3,4,7.3|
4,0,8.7|
4,1,6.8|
4,2,7.4|
4,3,2.2|
];
constraint_x13_x6=[
0,1,4.8|
0,2,1.8|
0,3,5.6|
0,4,9.7|
1,0,9.5|
1,2,3.9|
1,3,1.8|
1,4,1.1|
2,0,6.4|
2,1,3.4|
2,3,3.5|
2,4,8.1|
3,0,2.1|
3,1,8.8|
3,2,8.1|
3,4,5|
4,0,2.5|
4,1,8.3|
4,2,8.5|
4,3,1.6|
];
constraint_x13_x8=[
0,1,3.5|
0,2,6.6|
0,3,0.87|
0,4,3.3|
1,0,9.8|
1,2,2.6|
1,3,10|
1,4,2.5|
2,0,0.95|
2,1,7.5|
2,3,3.2|
2,4,0.75|
3,0,6.2|
3,1,4.9|
3,2,0.89|
3,4,6.1|
4,0,2.4|
4,1,0.98|
4,2,1.8|
4,3,5.1|
];
constraint_x13_x9=[
0,1,7.5|
0,2,7.3|
0,3,8.6|
0,4,1.1|
1,0,3.3|
1,2,1.1|
1,3,9.4|
1,4,4.4|
2,0,4|
2,1,0.19|
2,3,4.3|
2,4,8.5|
3,0,3.7|
3,1,8.2|
3,2,7.2|
3,4,4.7|
4,0,0.88|
4,1,0.47|
4,2,4.4|
4,3,2.4|
];
constraint_x13_x12=[
0,1,0.22|
0,2,5.9|
0,3,4.4|
0,4,9.4|
1,0,9.8|
1,2,9.5|
1,3,0.24|
1,4,6|
2,0,5.8|
2,1,5.7|
2,3,2.2|
2,4,7|
3,0,7.8|
3,1,5.2|
3,2,7.4|
3,4,0.042|
4,0,5.3|
4,1,3.3|
4,2,0.83|
4,3,4.4|
];
constraint_x14_x2=[
0,1,0.74|
0,2,3.5|
0,3,4.4|
0,4,2|
1,0,6.4|
1,2,4.8|
1,3,9.5|
1,4,4|
2,0,6.3|
2,1,4.6|
2,3,9.9|
2,4,7|
3,0,0.32|
3,1,6.2|
3,2,1.6|
3,4,7.2|
4,0,1.2|
4,1,1.3|
4,2,7.4|
4,3,7|
];
constraint_x14_x3=[
0,1,9.4|
0,2,9|
0,3,4.2|
0,4,9.3|
1,0,1.6|
1,2,3.3|
1,3,6.1|
1,4,4.3|
2,0,3.1|
2,1,1.6|
2,3,4.2|
2,4,4.7|
3,0,2|
3,1,0.85|
3,2,5.5|
3,4,1.2|
4,0,9.7|
4,1,1.6|
4,2,7.4|
4,3,4|
];
constraint_x14_x10=[
0,1,1.4|
0,2,1.9|
0,3,5.4|
0,4,4.8|
1,0,6.7|
1,2,9.5|
1,3,0.15|
1,4,2.9|
2,0,8.5|
2,1,2.7|
2,3,2|
2,4,5.3|
3,0,8.3|
3,1,6|
3,2,9.8|
3,4,0.46|
4,0,4|
4,1,7.3|
4,2,9.2|
4,3,3.7|
];
constraint_x15_x2=[
0,1,1.4|
0,2,6.5|
0,3,1.9|
0,4,1|
1,0,7.3|
1,2,9.7|
1,3,7|
1,4,0.77|
2,0,2.4|
2,1,2.4|
2,3,8.6|
2,4,7.1|
3,0,4.9|
3,1,2.2|
3,2,9.5|
3,4,3.9|
4,0,5|
4,1,7.6|
4,2,9.1|
4,3,6.2|
];
constraint_x15_x3=[
0,1,6|
0,2,2.3|
0,3,0.9|
0,4,7.2|
1,0,2.3|
1,2,6.6|
1,3,6.7|
1,4,8.2|
2,0,6|
2,1,2.8|
2,3,6.2|
2,4,8.8|
3,0,0.64|
3,1,6.3|
3,2,5.1|
3,4,5.6|
4,0,7.7|
4,1,9.1|
4,2,3.9|
4,3,1|
];
constraint_x15_x5=[
0,1,0.28|
0,2,4.6|
0,3,1.6|
0,4,9.8|
1,0,6.1|
1,2,7.4|
1,3,2.7|
1,4,7.7|
2,0,7.2|
2,1,1.9|
2,3,4.5|
2,4,0.55|
3,0,6.9|
3,1,4.8|
3,2,9.2|
3,4,7.5|
4,0,7.2|
4,1,3.6|
4,2,7.9|
4,3,1.7|
];
constraint_x15_x6=[
0,1,6.1|
0,2,8.9|
0,3,6.5|
0,4,0.86|
1,0,7.2|
1,2,0.92|
1,3,4.1|
1,4,2.5|
2,0,2.4|
2,1,1.6|
2,3,4.9|
2,4,8.3|
3,0,2.2|
3,1,6.6|
3,2,2.3|
3,4,7.7|
4,0,8.5|
4,1,1.6|
4,2,2.5|
4,3,1.7|
];
constraint_x15_x8=[
0,1,4.3|
0,2,0.97|
0,3,6.9|
0,4,4.9|
1,0,2.3|
1,2,3.3|
1,3,7.3|
1,4,2.3|
2,0,2|
2,1,3.6|
2,3,0.37|
2,4,8|
3,0,7.4|
3,1,0.54|
3,2,8.3|
3,4,0.92|
4,0,3.2|
4,1,9.3|
4,2,2|
4,3,7.9|
];
constraint_x15_x10=[
0,1,6.7|
0,2,0.86|
0,3,0.59|
0,4,3.4|
1,0,0.9|
1,2,7.1|
1,3,0.92|
1,4,3.5|
2,0,5.9|
2,1,7.1|
2,3,0.27|
2,4,1|
3,0,3.7|
3,1,5|
3,2,0.64|
3,4,5.9|
4,0,8.7|
4,1,5.5|
4,2,4.8|
4,3,7.2|
];
constraint_x15_x14=[
0,1,4.7|
0,2,6.9|
0,3,3.9|
0,4,9.9|
1,0,6.3|
1,2,4.9|
1,3,5.4|
1,4,2.4|
2,0,9.5|
2,1,8.7|
2,3,3.1|
2,4,1.7|
3,0,5|
3,1,2.3|
3,2,2.4|
3,4,3.7|
4,0,9.7|
4,1,1.7|
4,2,7.5|
4,3,0.18|
];
constraint_x1_y1=[
0,0,8.2|
0,1,4.7|
0,2,0.28|
0,3,2|
0,4,1.7|
1,0,5.3|
1,1,1.4|
1,2,8.4|
1,3,0.84|
1,4,5.8|
2,0,0.54|
2,1,7.8|
2,2,0.54|
2,3,2|
2,4,1.8|
3,0,5.7|
3,1,2.9|
3,2,4.7|
3,3,6.5|
3,4,4.5|
4,0,7.7|
4,1,6.3|
4,2,9.2|
4,3,3.9|
4,4,4.8|
];
constraint_x2_y2=[
0,0,9|
0,1,9.8|
0,2,2.2|
0,3,0.8|
0,4,2.9|
1,0,0.37|
1,1,3.4|
1,2,6.5|
1,3,8.9|
1,4,4.4|
2,0,4.5|
2,1,5|
2,2,9|
2,3,1.6|
2,4,9.1|
3,0,8.5|
3,1,6.3|
3,2,5.8|
3,3,3.8|
3,4,2.9|
4,0,2.3|
4,1,3.5|
4,2,6.5|
4,3,6.8|
4,4,1.8|
];
constraint_x3_y3=[
0,0,5|
0,1,5.5|
0,2,0.29|
0,3,0.89|
0,4,0.4|
1,0,8.5|
1,1,3.9|
1,2,5.9|
1,3,1.2|
1,4,4.9|
2,0,8.6|
2,1,8.1|
2,2,4.7|
2,3,5.4|
2,4,0.15|
3,0,1.7|
3,1,8.6|
3,2,1.1|
3,3,7.1|
3,4,5.9|
4,0,0.72|
4,1,6.4|
4,2,9.4|
4,3,6|
4,4,7.8|
];
initial_distribution_y1=[0.33,0.025,0.33,0.23,0.085];
initial_distribution_y2=[0.013,0.034,0.29,0.27,0.4];
initial_distribution_y3=[0.23,0.25,0.21,0.2,0.12];
transition_y1=[
0.28,0.13,0.21,0.2,0.18|
0.14,0.3,0.25,0.27,0.042|
0.036,0.41,0.29,0.2,0.066|
0.14,0.044,0.43,0.24,0.15|
0.2,0.37,0.22,0.16,0.057|
];
transition_y2=[
0.26,0.21,0.23,0.26,0.042|
0.088,0.044,0.31,0.27,0.29|
0.2,0.22,0.072,0.25,0.25|
0.23,0.22,0.24,0.055,0.25|
0.21,0.24,0.16,0.14,0.24|
];
transition_y3=[
0.21,0.18,0.014,0.56,0.035|
0.3,0.1,0.084,0.14,0.37|
0.17,0.18,0.16,0.2,0.29|
0.043,0.035,0.029,0.48,0.42|
0.27,0.16,0.17,0.28,0.12|
];
